c Nemesis formula in 6CNF in accordance with DIMACS CNF format:
c    Filename: MCNC/c2670/c2670.tdl
c    Formula number 33
c    4854 variables (range: 2 - 4855)
c    1640 clauses
c
c p cnf 4855 1640
p cnf 695 1640
377	0
695	0
377	0
-378	0
376	0
452	-453	0
-452	453	0
376	378	0
-376	-378	0
-681	-41	0
-682	-41	0
-683	41	0
-684	41	0
-685	383	0
-686	383	0
376	452	0
-376	-452	0
680	-378	0
-680	378	0
680	-453	0
-680	453	0
378	-453	0
-378	453	0
110	113	0
-114	-688	0
112	-688	0
114	-689	0
-112	-689	0
-689	687	0
-688	687	0
621	112	0
-621	-112	0
-622	113	0
623	114	0
-623	-114	0
625	621	0
-625	-621	0
-626	622	0
627	623	0
-627	-623	0
481	-625	0
-481	625	0
481	-628	0
-481	628	0
482	-626	0
482	-629	0
483	-627	0
-483	627	0
483	-630	0
-483	630	0
-422	-481	0
-484	-481	0
-487	-481	0
-488	-481	0
-485	482	0
-485	-488	0
-485	-487	0
-485	-422	0
-422	-483	0
-486	-483	0
-487	-483	0
-488	-483	0
-430	-678	0
490	-678	0
430	-679	0
-490	-679	0
-679	488	0
-678	488	0
48	-489	0
-48	489	0
48	-490	0
-48	490	0
48	-650	0
-48	650	0
48	-660	0
-48	660	0
269	-433	0
-269	433	0
269	-434	0
-269	434	0
269	-546	0
-269	546	0
270	269	0
263	269	0
266	269	0
271	269	0
274	271	0
107	271	0
275	271	0
88	-123	0
-88	123	0
88	-124	0
-88	124	0
88	-129	0
-88	129	0
88	-131	0
-88	131	0
88	-137	0
-88	137	0
88	-144	0
-88	144	0
88	-147	0
-88	147	0
88	-152	0
-88	152	0
88	-194	0
-88	194	0
88	-205	0
-88	205	0
88	-265	0
-88	265	0
88	-275	0
-88	275	0
88	-280	0
-88	280	0
88	-282	0
-88	282	0
88	-286	0
-88	286	0
88	-327	0
-88	327	0
88	-331	0
-88	331	0
88	-335	0
-88	335	0
88	-354	0
-88	354	0
88	-358	0
-88	358	0
88	-418	0
-88	418	0
120	-121	0
-120	121	0
120	-122	0
-120	122	0
120	-126	0
-120	126	0
120	-128	0
-120	128	0
120	-141	0
-120	141	0
120	-143	0
-120	143	0
120	-197	0
-120	197	0
120	-200	0
-120	200	0
120	-204	0
-120	204	0
120	-207	0
-120	207	0
120	-272	0
-120	272	0
120	-274	0
-120	274	0
120	-277	0
-120	277	0
120	-279	0
-120	279	0
120	-355	0
-120	355	0
120	-357	0
-120	357	0
120	-417	0
-120	417	0
120	-420	0
-120	420	0
359	120	0
-359	-120	0
42	-132	0
-42	132	0
42	-133	0
-42	133	0
42	-136	0
-42	136	0
42	-138	0
-42	138	0
42	-146	0
-42	146	0
42	-148	0
-42	148	0
42	-151	0
-42	151	0
42	-153	0
-42	153	0
42	-193	0
-42	193	0
42	-195	0
-42	195	0
42	-211	0
-42	211	0
42	-264	0
-42	264	0
42	-267	0
-42	267	0
42	-281	0
-42	281	0
42	-283	0
-42	283	0
42	-285	0
-42	285	0
42	-328	0
-42	328	0
42	-330	0
-42	330	0
42	-332	0
-42	332	0
42	-334	0
-42	334	0
42	-350	0
-42	350	0
42	-353	0
-42	353	0
42	-359	0
-42	359	0
267	266	0
28	266	0
268	266	0
125	-134	0
-125	134	0
125	-135	0
-125	135	0
125	-139	0
-125	139	0
125	-142	0
-125	142	0
125	-149	0
-125	149	0
125	-154	0
-125	154	0
125	-196	0
-125	196	0
125	-198	0
-125	198	0
125	-201	0
-125	201	0
125	-208	0
-125	208	0
125	-212	0
-125	212	0
125	-268	0
-125	268	0
125	-273	0
-125	273	0
125	-278	0
-125	278	0
125	-284	0
-125	284	0
125	-329	0
-125	329	0
125	-333	0
-125	333	0
125	-351	0
-125	351	0
125	-356	0
-125	356	0
125	-421	0
-125	421	0
335	125	0
-335	-125	0
264	263	0
77	263	0
265	263	0
272	270	0
106	270	0
273	270	0
75	-344	0
-75	344	0
75	-345	0
-75	345	0
75	-403	0
-75	403	0
75	-408	0
-75	408	0
75	-414	0
-75	414	0
75	-424	0
-75	424	0
75	-428	0
-75	428	0
75	-432	0
-75	432	0
75	-437	0
-75	437	0
338	-342	0
-338	342	0
338	-343	0
-338	343	0
338	-407	0
-338	407	0
338	-413	0
-338	413	0
338	-423	0
-338	423	0
338	-427	0
-338	427	0
338	-431	0
-338	431	0
338	-436	0
-338	436	0
403	338	0
-403	-338	0
470	487	0
-470	-487	0
-471	-470	0
-472	-470	0
615	472	0
-543	-615	0
-435	-672	0
643	-672	0
435	-673	0
-643	-673	0
-673	543	0
-672	543	0
23	-643	0
-23	643	0
23	-644	0
-23	644	0
23	-647	0
-23	647	0
23	-661	0
-23	661	0
409	-438	0
-409	438	0
409	-439	0
-409	439	0
409	-492	0
-409	492	0
409	-545	0
-409	545	0
419	409	0
150	409	0
416	409	0
417	416	0
60	416	0
418	416	0
420	419	0
37	419	0
421	419	0
412	-655	0
-412	655	0
412	-656	0
-412	656	0
340	-347	0
-340	347	0
340	-348	0
-340	348	0
340	-415	0
-340	415	0
340	-480	0
-340	480	0
276	340	0
352	340	0
349	340	0
350	349	0
102	349	0
351	349	0
353	352	0
11	352	0
354	352	0
652	651	0
-652	-651	0
66	-607	0
-66	607	0
66	-608	0
-66	608	0
66	-649	0
-66	649	0
66	-652	0
-66	652	0
66	-654	0
-66	654	0
66	-662	0
-66	662	0
655	653	0
-655	-653	0
620	614	0
-620	-614	0
341	-619	0
-341	619	0
341	-620	0
-341	620	0
190	-254	0
-190	254	0
190	-255	0
-190	255	0
190	-325	0
-190	325	0
190	-346	0
-190	346	0
191	190	0
192	190	0
119	190	0
121	119	0
18	119	0
123	119	0
197	191	0
35	191	0
198	191	0
3	-256	0
-3	256	0
3	-257	0
-3	257	0
3	-588	0
-3	588	0
3	-613	0
-3	613	0
3	-618	0
-3	618	0
3	-658	0
-3	658	0
610	-616	0
-610	616	0
610	-617	0
-610	617	0
613	610	0
-613	-610	0
475	471	0
63	-478	0
-63	478	0
63	-479	0
-63	479	0
63	-566	0
-63	566	0
63	-569	0
-63	569	0
63	-659	0
-63	659	0
213	-258	0
-213	258	0
213	-259	0
-213	259	0
213	-326	0
-213	326	0
213	-429	0
-213	429	0
140	213	0
214	213	0
210	213	0
211	210	0
104	210	0
212	210	0
285	214	0
79	214	0
286	214	0
476	473	0
-476	-473	0
406	-476	0
-406	476	0
406	-477	0
-406	477	0
202	-410	0
-202	410	0
202	-411	0
-202	411	0
199	202	0
130	202	0
127	202	0
128	127	0
64	127	0
129	127	0
200	199	0
71	199	0
201	199	0
47	-645	0
-47	645	0
47	-646	0
-47	646	0
47	-648	0
-47	648	0
47	-663	0
-47	663	0
474	-601	0
-474	601	0
474	-602	0
-474	602	0
474	-605	0
-474	605	0
648	474	0
-648	-474	0
504	484	0
-505	485	0
-500	-494	0
-495	-499	0
506	486	0
-507	-504	0
-511	-504	0
-512	-504	0
-513	-504	0
-508	505	0
-508	-513	0
-508	-512	0
-508	-511	0
-509	-506	0
-511	-506	0
-512	-506	0
-513	-506	0
-380	-670	0
547	-670	0
380	-671	0
-547	-671	0
-671	513	0
-670	513	0
49	-459	0
-49	459	0
49	-460	0
-49	460	0
49	-520	0
-49	520	0
49	-547	0
-49	547	0
223	-404	0
-223	404	0
223	-405	0
-223	405	0
223	-469	0
-223	469	0
223	-519	0
-223	519	0
223	-565	0
-223	565	0
155	223	0
218	223	0
215	223	0
216	215	0
87	215	0
217	215	0
46	-160	0
-46	160	0
46	-161	0
-46	161	0
46	-165	0
-46	165	0
46	-171	0
-46	171	0
46	-179	0
-46	179	0
46	-182	0
-46	182	0
46	-187	0
-46	187	0
46	-217	0
-46	217	0
46	-226	0
-46	226	0
46	-229	0
-46	229	0
46	-238	0
-46	238	0
46	-243	0
-46	243	0
46	-248	0
-46	248	0
46	-251	0
-46	251	0
46	-287	0
-46	287	0
46	-290	0
-46	290	0
46	-304	0
-46	304	0
46	-365	0
-46	365	0
46	-367	0
-46	367	0
46	-371	0
-46	371	0
46	-375	0
-46	375	0
175	-177	0
-175	177	0
175	-178	0
-175	178	0
175	-216	0
-175	216	0
175	-219	0
-175	219	0
175	-225	0
-175	225	0
175	-228	0
-175	228	0
175	-231	0
-175	231	0
175	-245	0
-175	245	0
175	-247	0
-175	247	0
175	-250	0
-175	250	0
175	-289	0
-175	289	0
175	-292	0
-175	292	0
175	-295	0
-175	295	0
175	-303	0
-175	303	0
175	-306	0
-175	306	0
175	-314	0
-175	314	0
175	-361	0
-175	361	0
175	-364	0
-175	364	0
175	-366	0
-175	366	0
175	-368	0
-175	368	0
390	175	0
-390	-175	0
73	-158	0
-73	158	0
73	-159	0
-73	159	0
73	-162	0
-73	162	0
73	-164	0
-73	164	0
73	-166	0
-73	166	0
73	-170	0
-73	170	0
73	-172	0
-73	172	0
73	-181	0
-73	181	0
73	-183	0
-73	183	0
73	-186	0
-73	186	0
73	-188	0
-73	188	0
73	-222	0
-73	222	0
73	-237	0
-73	237	0
73	-239	0
-73	239	0
73	-242	0
-73	242	0
73	-300	0
-73	300	0
73	-310	0
-73	310	0
73	-370	0
-73	370	0
73	-372	0
-73	372	0
73	-374	0
-73	374	0
73	-390	0
-73	390	0
157	-167	0
-157	167	0
157	-168	0
-157	168	0
157	-173	0
-157	173	0
157	-176	0
-157	176	0
157	-184	0
-157	184	0
157	-189	0
-157	189	0
157	-220	0
-157	220	0
157	-221	0
-157	221	0
157	-232	0
-157	232	0
157	-240	0
-157	240	0
157	-246	0
-157	246	0
157	-293	0
-157	293	0
157	-296	0
-157	296	0
157	-301	0
-157	301	0
157	-307	0
-157	307	0
157	-311	0
-157	311	0
157	-315	0
-157	315	0
157	-362	0
-157	362	0
157	-369	0
-157	369	0
157	-373	0
-157	373	0
287	157	0
-287	-157	0
158	155	0
98	155	0
160	155	0
58	-383	0
-58	383	0
58	-384	0
-58	384	0
58	-385	0
-58	385	0
58	-388	0
-58	388	0
58	-393	0
-58	393	0
58	-442	0
-58	442	0
58	-447	0
-58	447	0
58	-450	0
-58	450	0
58	-455	0
-58	455	0
58	-458	0
-58	458	0
379	-381	0
-379	381	0
379	-382	0
-379	382	0
379	-387	0
-379	387	0
379	-392	0
-379	392	0
379	-441	0
-379	441	0
379	-446	0
-379	446	0
379	-449	0
-379	449	0
379	-454	0
-379	454	0
379	-457	0
-379	457	0
385	379	0
-385	-379	0
526	512	0
-576	-526	0
-440	-666	0
591	-666	0
440	-667	0
-591	-667	0
-667	576	0
-666	576	0
89	-590	0
-89	590	0
89	-591	0
-89	591	0
89	-594	0
-89	594	0
262	-323	0
-262	323	0
262	-324	0
-262	324	0
262	-443	0
-262	443	0
262	-465	0
-262	465	0
262	-467	0
-262	467	0
360	262	0
163	262	0
363	262	0
364	363	0
2	363	0
365	363	0
361	360	0
32	360	0
362	360	0
337	-578	0
-337	578	0
337	-579	0
-337	579	0
115	-260	0
-115	260	0
115	-261	0
-115	261	0
115	-336	0
-115	336	0
115	-339	0
-115	339	0
116	115	0
117	115	0
118	115	0
122	118	0
55	118	0
124	118	0
126	116	0
5	116	0
134	116	0
573	572	0
-573	-572	0
108	-252	0
-108	252	0
108	-253	0
-108	253	0
108	-573	0
-108	573	0
108	-577	0
-108	577	0
108	-587	0
-108	587	0
578	574	0
-578	-574	0
530	525	0
-530	-525	0
386	-529	0
-386	529	0
386	-530	0
-386	530	0
308	-321	0
-308	321	0
308	-322	0
-308	322	0
308	-389	0
-308	389	0
308	-468	0
-308	468	0
308	-491	0
-308	491	0
308	-518	0
-308	518	0
308	-544	0
-308	544	0
305	308	0
236	308	0
302	308	0
303	302	0
53	302	0
304	302	0
306	305	0
25	305	0
307	305	0
54	-521	0
-54	521	0
54	-522	0
-54	522	0
54	-528	0
-54	528	0
394	-395	0
-394	395	0
394	-396	0
-394	396	0
394	-527	0
-394	527	0
522	394	0
-522	-394	0
556	511	0
557	511	0
514	511	0
552	511	0
603	552	0
555	552	0
452	-554	0
-452	554	0
452	-555	0
-452	555	0
233	-539	0
-233	539	0
233	-540	0
-233	540	0
233	-564	0
-233	564	0
233	-589	0
-233	589	0
233	-636	0
-233	636	0
233	-637	0
-233	637	0
233	-640	0
-233	640	0
230	233	0
180	233	0
224	233	0
225	224	0
22	224	0
226	224	0
231	230	0
100	230	0
232	230	0
553	-603	0
-553	603	0
553	-604	0
-553	604	0
553	-606	0
-553	606	0
597	553	0
-597	-553	0
1	-596	0
-1	596	0
1	-597	0
-1	597	0
1	-624	0
-1	624	0
50	-567	0
-50	567	0
50	-568	0
-50	568	0
50	-570	0
-50	570	0
50	-598	0
-50	598	0
312	-531	0
-312	531	0
312	-532	0
-312	532	0
312	-535	0
-312	535	0
312	-563	0
-312	563	0
312	-632	0
-312	632	0
312	-633	0
-312	633	0
312	-635	0
-312	635	0
312	-638	0
-312	638	0
312	-639	0
-312	639	0
312	-641	0
-312	641	0
312	-642	0
-312	642	0
244	312	0
241	312	0
309	312	0
310	309	0
39	309	0
311	309	0
242	241	0
26	241	0
243	241	0
-558	-557	0
-515	-557	0
-548	-557	0
-448	-668	0
550	-668	0
448	-669	0
-550	-669	0
-669	548	0
-668	548	0
90	-549	0
-90	549	0
90	-550	0
-90	550	0
90	-575	0
-90	575	0
234	-317	0
-234	317	0
234	-318	0
-234	318	0
234	-451	0
-234	451	0
234	-516	0
-234	516	0
234	-537	0
-234	537	0
234	-559	0
-234	559	0
234	-580	0
-234	580	0
234	-586	0
-234	586	0
235	234	0
169	234	0
227	234	0
228	227	0
61	227	0
229	227	0
295	235	0
43	235	0
296	235	0
-391	-674	0
523	-674	0
391	-675	0
-523	-675	0
-675	515	0
-674	515	0
78	-523	0
-78	523	0
78	-524	0
-78	524	0
78	-571	0
-78	571	0
78	-609	0
-78	609	0
316	-461	0
-316	461	0
316	-462	0
-316	462	0
316	-463	0
-316	463	0
316	-517	0
-316	517	0
316	-542	0
-316	542	0
316	-592	0
-316	592	0
316	-595	0
-316	595	0
313	316	0
185	316	0
249	316	0
250	249	0
19	249	0
251	249	0
314	313	0
81	313	0
315	313	0
-445	-664	0
600	-664	0
445	-665	0
-600	-665	0
-665	558	0
-664	558	0
96	-599	0
-96	599	0
96	-600	0
-96	600	0
96	-611	0
-96	611	0
96	-612	0
-96	612	0
294	-560	0
-294	560	0
294	-561	0
-294	561	0
294	-562	0
-294	562	0
294	-584	0
-294	584	0
294	-631	0
-294	631	0
294	-634	0
-294	634	0
294	-657	0
-294	657	0
291	294	0
156	294	0
288	294	0
289	288	0
101	288	0
290	288	0
292	291	0
44	291	0
293	291	0
551	556	0
596	556	0
554	551	0
-554	-551	0
-376	-676	0
510	-676	0
376	-677	0
-510	-677	0
-677	507	0
-676	507	0
-378	-690	0
510	-690	0
378	-691	0
-510	-691	0
-691	509	0
-690	509	0
67	-319	0
-67	319	0
67	-320	0
-67	320	0
67	-510	0
-67	510	0
67	-593	0
-67	593	0
297	-397	0
-297	397	0
297	-398	0
-297	398	0
297	-402	0
-297	402	0
297	-464	0
-297	464	0
297	-466	0
-297	466	0
174	297	0
298	297	0
299	297	0
300	299	0
74	299	0
301	299	0
374	298	0
76	298	0
375	298	0
-503	-499	0
-533	-499	0
493	-533	0
-493	533	0
493	-534	0
-493	534	0
493	-538	0
-493	538	0
493	-581	0
-493	581	0
493	-583	0
-493	583	0
497	493	0
-497	-493	0
103	-497	0
-103	497	0
103	-498	0
-103	498	0
103	-536	0
-103	536	0
103	-541	0
-103	541	0
103	-582	0
-103	582	0
103	-585	0
-103	585	0
444	-502	0
-444	502	0
444	-503	0
-444	503	0
36	444	0
-36	-444	0
-502	-494	0
-498	-494	0
209	-399	0
-209	399	0
209	-400	0
-209	400	0
209	-401	0
-209	401	0
209	-425	0
-209	425	0
206	209	0
145	209	0
203	209	0
204	203	0
8	203	0
205	203	0
207	206	0
30	206	0
208	206	0
-111	-693	0
109	-693	0
111	-694	0
-109	-694	0
-694	692	0
-693	692	0
628	109	0
-628	-109	0
-629	110	0
630	111	0
-630	-111	0
-692	695	0
-687	695	0
680	57	41	0
688	114	-112	0
689	-114	112	0
-687	689	688	0
-113	112	114	0
-113	-112	-114	0
-622	621	623	0
-622	-621	-623	0
-482	626	629	0
-629	628	630	0
-629	-628	-630	0
-626	625	627	0
-626	-625	-627	0
-482	481	483	0
-482	-481	-483	0
678	430	-490	0
679	-430	490	0
-488	679	678	0
-431	-33	-430	0
-434	-432	-430	0
432	33	430	0
434	33	430	0
432	431	430	0
434	431	430	0
470	471	472	0
617	619	472	0
614	618	472	0
-654	-653	-615	0
-656	-651	-615	0
672	435	-643	0
673	-435	643	0
-543	673	672	0
-436	-99	-435	0
-439	-437	-435	0
437	99	435	0
439	99	435	0
437	436	435	0
439	436	435	0
153	151	150	0
91	151	150	0
154	151	150	0
153	65	150	0
91	65	150	0
154	65	150	0
153	152	150	0
91	152	150	0
154	152	150	0
-413	-29	-412	0
-415	-414	-412	0
414	29	412	0
415	29	412	0
414	413	412	0
415	413	412	0
279	277	276	0
80	277	276	0
280	277	276	0
279	72	276	0
80	72	276	0
280	72	276	0
279	278	276	0
80	278	276	0
280	278	276	0
-343	-34	-341	0
-346	-345	-341	0
345	34	341	0
346	34	341	0
345	343	341	0
346	343	341	0
195	193	192	0
52	193	192	0
196	193	192	0
195	84	192	0
52	84	192	0
196	84	192	0
195	194	192	0
52	194	192	0
196	194	192	0
601	477	471	0
473	645	471	0
479	426	475	0
-479	-426	475	0
-479	426	-475	0
479	-426	-475	0
-427	-83	-426	0
-429	-428	-426	0
428	83	426	0
429	83	426	0
428	427	426	0
429	427	426	0
143	141	140	0
14	141	140	0
144	141	140	0
143	16	140	0
14	16	140	0
144	16	140	0
143	142	140	0
14	142	140	0
144	142	140	0
-407	-40	-406	0
-410	-408	-406	0
408	40	406	0
410	40	406	0
408	407	406	0
410	407	406	0
133	132	130	0
13	132	130	0
135	132	130	0
133	97	130	0
13	97	130	0
135	97	130	0
133	131	130	0
13	131	130	0
135	131	130	0
499	494	484	0
-504	-494	-484	0
-504	-499	-484	0
-500	-501	506	0
-500	-499	504	0
-500	504	506	0
-495	-496	506	0
-495	-494	504	0
-495	504	506	0
-505	499	494	0
-485	484	486	0
-485	-484	-486	0
499	494	486	0
-506	-494	-486	0
-506	-499	-486	0
-505	504	506	0
-505	-504	-506	0
670	380	-547	0
671	-380	547	0
-513	671	670	0
-382	-17	-380	0
-404	-384	-380	0
384	17	380	0
404	17	380	0
384	382	380	0
404	382	380	0
-222	-221	-218	0
221	219	218	0
222	219	218	0
221	38	218	0
222	38	218	0
221	220	218	0
222	220	218	0
527	529	512	0
525	528	512	0
-577	-574	-526	0
-579	-572	-526	0
666	440	-591	0
667	-440	591	0
-576	667	666	0
-441	-85	-440	0
-443	-442	-440	0
442	85	440	0
443	85	440	0
442	441	440	0
443	441	440	0
166	164	163	0
92	164	163	0
168	164	163	0
166	21	163	0
92	21	163	0
168	21	163	0
166	165	163	0
92	165	163	0
168	165	163	0
-342	-93	-337	0
-339	-344	-337	0
344	93	337	0
339	93	337	0
344	342	337	0
339	342	337	0
138	136	117	0
59	136	117	0
139	136	117	0
138	7	117	0
59	7	117	0
139	7	117	0
138	137	117	0
59	137	117	0
139	137	117	0
-387	-105	-386	0
-389	-388	-386	0
388	105	386	0
389	105	386	0
388	387	386	0
389	387	386	0
239	237	236	0
45	237	236	0
240	237	236	0
239	15	236	0
45	15	236	0
240	15	236	0
239	238	236	0
45	238	236	0
240	238	236	0
-552	-603	-555	0
-454	-57	-452	0
-539	-455	-452	0
455	57	452	0
539	57	452	0
455	454	452	0
539	454	452	0
183	181	180	0
56	181	180	0
184	181	180	0
183	10	180	0
56	10	180	0
184	10	180	0
183	182	180	0
56	182	180	0
184	182	180	0
567	456	514	0
-567	-456	514	0
-567	456	-514	0
567	-456	-514	0
-457	-24	-456	0
-531	-458	-456	0
458	24	456	0
531	24	456	0
458	457	456	0
531	457	456	0
247	245	244	0
20	245	244	0
248	245	244	0
247	62	244	0
20	62	244	0
248	62	244	0
247	246	244	0
20	246	244	0
248	246	244	0
668	448	-550	0
669	-448	550	0
-548	669	668	0
-449	-31	-448	0
-451	-450	-448	0
450	31	448	0
451	31	448	0
450	449	448	0
451	449	448	0
172	170	169	0
51	170	169	0
173	170	169	0
172	12	169	0
51	12	169	0
173	12	169	0
172	171	169	0
51	171	169	0
173	171	169	0
674	391	-523	0
675	-391	523	0
-515	675	674	0
-392	-4	-391	0
-461	-393	-391	0
393	4	391	0
461	4	391	0
393	392	391	0
461	392	391	0
188	186	185	0
68	186	185	0
189	186	185	0
188	95	185	0
68	95	185	0
189	95	185	0
188	187	185	0
68	187	185	0
189	187	185	0
664	445	-600	0
665	-445	600	0
-558	665	664	0
-446	-9	-445	0
-560	-447	-445	0
447	9	445	0
560	9	445	0
447	446	445	0
560	446	445	0
162	159	156	0
6	159	156	0
167	159	156	0
162	27	156	0
6	27	156	0
167	27	156	0
162	161	156	0
6	161	156	0
167	161	156	0
-556	-551	-596	0
676	376	-510	0
677	-376	510	0
-507	677	676	0
-508	507	509	0
-508	-507	-509	0
690	378	-510	0
691	-378	510	0
-509	691	690	0
-381	-41	-376	0
-397	-383	-376	0
383	41	376	0
397	41	376	0
383	381	376	0
397	381	376	0
178	177	174	0
70	177	174	0
179	177	174	0
178	82	174	0
70	82	174	0
179	82	174	0
178	176	174	0
70	176	174	0
179	176	174	0
499	503	533	0
494	502	498	0
-423	-69	-422	0
-425	-424	-422	0
424	69	422	0
425	69	422	0
424	423	422	0
425	423	422	0
148	146	145	0
86	146	145	0
149	146	145	0
148	94	145	0
86	94	145	0
149	94	145	0
148	147	145	0
86	147	145	0
149	147	145	0
693	111	-109	0
694	-111	109	0
-692	694	693	0
-110	109	111	0
-110	-109	-111	0
-695	692	687	0
-454	-57	-381	-41	0
-539	-455	-381	-41	0
680	454	383	41	0
455	57	397	41	0
539	57	397	41	0
539	454	397	41	0
680	454	397	41	0
455	57	383	381	0
539	57	383	381	0
455	454	383	381	0
539	454	383	381	0
455	454	397	381	0
539	454	397	381	0
680	455	57	381	0
680	539	57	381	0
-454	-57	-397	-383	0
-539	-455	-397	-383	0
-271	-274	-107	-275	0
-266	-267	-28	-268	0
-263	-264	-77	-265	0
-270	-272	-106	-273	0
-615	-618	-619	-472	0
-615	-614	-619	-472	0
-615	-618	-617	-472	0
-615	-614	-617	-472	0
543	651	653	615	0
543	656	653	615	0
543	651	654	615	0
543	656	654	615	0
-409	-419	-150	-416	0
-416	-417	-60	-418	0
-152	-65	-151	-150	0
-154	-91	-153	-150	0
-419	-420	-37	-421	0
-340	-276	-352	-349	0
-349	-350	-102	-351	0
-352	-353	-11	-354	0
-278	-72	-277	-276	0
-280	-80	-279	-276	0
-190	-191	-192	-119	0
-119	-121	-18	-123	0
-194	-84	-193	-192	0
-196	-52	-195	-192	0
-191	-197	-35	-198	0
-475	-645	-477	-471	0
-475	-473	-477	-471	0
-475	-645	-601	-471	0
-475	-473	-601	-471	0
-213	-140	-214	-210	0
-210	-211	-104	-212	0
-214	-285	-79	-286	0
-142	-16	-141	-140	0
-144	-14	-143	-140	0
-202	-199	-130	-127	0
-127	-128	-64	-129	0
-131	-97	-132	-130	0
-135	-13	-133	-130	0
-199	-200	-71	-201	0
-223	-155	-218	-215	0
-215	-216	-87	-217	0
-220	-38	-219	-218	0
-155	-158	-98	-160	0
-526	-528	-529	-512	0
-526	-525	-529	-512	0
-526	-528	-527	-512	0
-526	-525	-527	-512	0
576	572	574	526	0
576	579	574	526	0
576	572	577	526	0
576	579	577	526	0
-262	-360	-163	-363	0
-363	-364	-2	-365	0
-165	-21	-164	-163	0
-168	-92	-166	-163	0
-360	-361	-32	-362	0
-115	-116	-117	-118	0
-118	-122	-55	-124	0
-137	-7	-136	-117	0
-139	-59	-138	-117	0
-116	-126	-5	-134	0
-308	-305	-236	-302	0
-302	-303	-53	-304	0
-238	-15	-237	-236	0
-240	-45	-239	-236	0
-305	-306	-25	-307	0
-233	-230	-180	-224	0
-224	-225	-22	-226	0
-182	-10	-181	-180	0
-184	-56	-183	-180	0
-230	-231	-100	-232	0
-312	-244	-241	-309	0
-309	-310	-39	-311	0
-241	-242	-26	-243	0
-246	-62	-245	-244	0
-248	-20	-247	-244	0
557	558	515	548	0
-234	-235	-169	-227	0
-227	-228	-61	-229	0
-171	-12	-170	-169	0
-173	-51	-172	-169	0
-235	-295	-43	-296	0
-316	-313	-185	-249	0
-249	-250	-19	-251	0
-187	-95	-186	-185	0
-189	-68	-188	-185	0
-313	-314	-81	-315	0
-294	-291	-156	-288	0
-288	-289	-101	-290	0
-161	-27	-159	-156	0
-167	-6	-162	-156	0
-291	-292	-44	-293	0
-297	-174	-298	-299	0
-299	-300	-74	-301	0
-298	-374	-76	-375	0
-176	-82	-177	-174	0
-179	-70	-178	-174	0
-209	-206	-145	-203	0
-203	-204	-8	-205	0
-147	-94	-146	-145	0
-149	-86	-148	-145	0
-206	-207	-30	-208	0
-680	-397	-383	-381	-41	0
-680	-455	-454	-381	-41	0
-680	-539	-454	-381	-41	0
-680	397	-383	381	-41	0
-680	-397	383	381	-41	0
680	455	-454	381	41	0
680	539	-454	381	41	0
680	539	455	454	41	0
-680	-454	-57	-383	-381	0
680	454	57	383	-381	0
680	454	57	397	-381	0
680	57	397	383	381	0
680	454	397	383	381	0
680	539	455	454	381	0
-680	-539	-455	-454	-57	0
-680	539	-455	454	-57	0
-680	-539	455	454	-57	0
481	422	484	487	488	0
483	422	486	487	488	0
-269	-270	-263	-266	-271	0
504	507	511	512	513	0
506	509	511	512	513	0
-511	-556	-557	-514	-552	0
680	539	455	383	-381	681	0
680	539	455	397	-381	682	0
-680	455	-397	383	-381	683	0
-680	539	-397	383	-381	684	0
680	455	-454	-57	397	685	0
680	539	-454	-57	397	686	0
